(declare-fun temp7283_1 () (_ BitVec 64))
(declare-fun temp7283_2 () (_ BitVec 64))
(declare-fun var77740 () (_ BitVec 64))
(declare-fun k!0 () Bool)
(declare-fun ARGNAME_filter_NAMEEND_DIM () (_ BitVec 64))
(declare-fun ARGNAME_data_format_NAMEEND_STRFMT () (_ BitVec 64))
(declare-fun temp7283_3 () (_ BitVec 64))
(declare-fun ARGNAME_out_backprop_NAMEEND_DIM () (_ BitVec 64))
(declare-fun var77770 () (_ BitVec 64))
(declare-fun temp7283_4 () (_ BitVec 64))
(declare-fun temp7283_5 () (_ BitVec 64))
(declare-fun ARGNAME_filter_NAMEEND_DIMSIZE
             ()
             (Array (_ BitVec 64) (_ BitVec 64)))
(declare-fun temp7283_6 () (_ BitVec 64))
(declare-fun temp7283_7 () (_ BitVec 64))
(declare-fun temp7283_8 () (_ BitVec 64))
(declare-fun temp7283_9 () (_ BitVec 64))
(declare-fun temp7283_10 () (_ BitVec 64))
(declare-fun temp7283_11 () (_ BitVec 64))
(declare-fun temp7283_12 () (_ BitVec 64))
(declare-fun temp7283_13 () (_ BitVec 64))
(declare-fun temp7283_14 () (_ BitVec 64))
(declare-fun temp7283_15 () (_ BitVec 64))
(declare-fun temp7283_16 () (_ BitVec 64))
(declare-fun temp7283_17 () (_ BitVec 64))
(declare-fun temp7283_18 () (_ BitVec 64))
(declare-fun var77799 () (_ BitVec 64))
(declare-fun temp7283_19 () (_ BitVec 64))
(declare-fun ARGNAME_out_backprop_NAMEEND_DIMSIZE
             ()
             (Array (_ BitVec 64) (_ BitVec 64)))
(declare-fun temp7283_20 () (_ BitVec 64))
(declare-fun temp7283_21 () (_ BitVec 64))
(declare-fun temp7283_22 () (_ BitVec 64))
(declare-fun temp7283_23 () (_ BitVec 64))
(declare-fun temp7283_24 () (_ BitVec 64))
(declare-fun temp7283_25 () (_ BitVec 64))
(declare-fun temp7283_26 () (_ BitVec 64))
(declare-fun temp7283_27 () (_ BitVec 64))
(declare-fun temp7283_28 () (_ BitVec 64))
(declare-fun temp7283_29 () (_ BitVec 64))
(declare-fun temp7283_30 () (_ BitVec 64))
(declare-fun temp7283_31 () (_ BitVec 64))
(declare-fun temp7283_32 () (_ BitVec 64))
(declare-fun var77832 () (_ BitVec 64))
(declare-fun temp7283_33 () (_ BitVec 64))
(declare-fun temp7283_34 () (_ BitVec 64))
(declare-fun var77833 () (_ BitVec 64))
(declare-fun var77834 () (_ BitVec 64))
(declare-fun temp7283_35 () (_ BitVec 64))
(declare-fun temp7283_36 () (_ BitVec 64))
(declare-fun var275510 () (_ BitVec 64))
(declare-fun temp7283_37 () (_ BitVec 64))
(declare-fun var275528 () (_ BitVec 64))
(declare-fun temp7283_38 () (_ BitVec 64))
(declare-fun temp7283_40 () (_ BitVec 64))
(declare-fun temp7283_39 () (_ BitVec 64))
(declare-fun temp7283_42 () (_ BitVec 64))
(declare-fun temp7283_41 () (_ BitVec 64))
(declare-fun temp7283_43 () (_ BitVec 64))
(declare-fun var406582 () (_ BitVec 64))
(declare-fun temp7283_44 () (_ BitVec 64))
(declare-fun var406600 () (_ BitVec 64))
(declare-fun temp7283_45 () (_ BitVec 64))
(declare-fun temp7283_47 () (_ BitVec 64))
(declare-fun temp7283_46 () (_ BitVec 64))
(declare-fun temp7283_48 () (_ BitVec 64))
(declare-fun var603190 () (_ BitVec 64))
(declare-fun temp7283_49 () (_ BitVec 64))
(declare-fun var603208 () (_ BitVec 64))
(declare-fun temp7283_50 () (_ BitVec 64))
(declare-fun temp7283_52 () (_ BitVec 64))
(declare-fun temp7283_51 () (_ BitVec 64))
(declare-fun temp7283_54 () (_ BitVec 64))
(declare-fun temp7283_53 () (_ BitVec 64))
(declare-fun temp7283_56 () (_ BitVec 64))
(declare-fun temp7283_55 () (_ BitVec 64))
(declare-fun temp7283_58 () (_ BitVec 64))
(declare-fun temp7283_57 () (_ BitVec 64))
(declare-fun temp7283_60 () (_ BitVec 64))
(declare-fun temp7283_59 () (_ BitVec 64))
(declare-fun temp7283_61 () (_ BitVec 64))
(declare-fun var795723 () (_ BitVec 64))
(declare-fun var795702 () (_ BitVec 64))
(declare-fun var730134 () (_ BitVec 64))
(declare-fun temp7283_62 () (_ BitVec 64))
(declare-fun temp7283_63 () (_ BitVec 64))
(declare-fun var861259 () (_ BitVec 64))
(declare-fun var861238 () (_ BitVec 64))
(declare-fun var730144 () (_ BitVec 64))
(declare-fun temp7283_64 () (_ BitVec 64))
(declare-fun temp7283_65 () (_ BitVec 64))
(declare-fun var926795 () (_ BitVec 64))
(declare-fun var926774 () (_ BitVec 64))
(declare-fun var730147 () (_ BitVec 64))
(declare-fun temp7283_66 () (_ BitVec 64))
(declare-fun temp7283_67 () (_ BitVec 64))
(declare-fun var1123378 () (_ BitVec 64))
(declare-fun temp7283_68 () (_ BitVec 64))
(declare-fun var1188914 () (_ BitVec 64))
(declare-fun temp7283_69 () (_ BitVec 64))
(declare-fun var1254450 () (_ BitVec 64))
(declare-fun temp7283_71 () (_ BitVec 64))
(declare-fun temp7283_70 () (_ BitVec 64))
(declare-fun temp7283_73 () (_ BitVec 64))
(declare-fun temp7283_72 () (_ BitVec 64))
(declare-fun temp7283_74 () (_ BitVec 64))
(declare-fun var78544 () (_ BitVec 64))
(declare-fun temp7283_75 () (_ BitVec 64))
(declare-fun var78545 () (_ BitVec 64))
(assert (or (= ARGNAME_data_format_NAMEEND_STRFMT #x0000000000000000)
    (= ARGNAME_data_format_NAMEEND_STRFMT #x0000000000000001)
    (= ARGNAME_data_format_NAMEEND_STRFMT #x0000000000000002)
    (= ARGNAME_data_format_NAMEEND_STRFMT #x0000000000000003)
    (= ARGNAME_data_format_NAMEEND_STRFMT #x0000000000000004)
    (= ARGNAME_data_format_NAMEEND_STRFMT #x0000000000000005)))
(assert (= temp7283_1 #x0000000000000005))
(assert (= var77740
   (ite (= ARGNAME_filter_NAMEEND_DIM temp7283_1)
        #x0000000000000001
        #x0000000000000000)))
(assert (= temp7283_2 #x0000000000000001))
(assert (= var77740 temp7283_2))
(assert (= temp7283_3 #x0000000000000005))
(assert (= var77770
   (ite (= ARGNAME_out_backprop_NAMEEND_DIM temp7283_3)
        #x0000000000000001
        #x0000000000000000)))
(assert (= temp7283_4 #x0000000000000001))
(assert (= var77770 temp7283_4))
(assert (= temp7283_5 #x0000000000000000))
(assert (= temp7283_6 (select ARGNAME_filter_NAMEEND_DIMSIZE temp7283_5)))
(assert (= temp7283_7 #x0000000000000001))
(assert (= temp7283_8 (select ARGNAME_filter_NAMEEND_DIMSIZE temp7283_7)))
(assert (= temp7283_9 #x0000000000000002))
(assert (= temp7283_10 (select ARGNAME_filter_NAMEEND_DIMSIZE temp7283_9)))
(assert (= temp7283_11 #x0000000000000003))
(assert (= temp7283_12 (select ARGNAME_filter_NAMEEND_DIMSIZE temp7283_11)))
(assert (= temp7283_13 #x0000000000000004))
(assert (= temp7283_14 (select ARGNAME_filter_NAMEEND_DIMSIZE temp7283_13)))
(assert (= temp7283_15 #x0000000000000005))
(assert (= temp7283_16 (select ARGNAME_filter_NAMEEND_DIMSIZE temp7283_15)))
(assert (= temp7283_17 #x0000000000000003))
(assert (= temp7283_18 (select ARGNAME_filter_NAMEEND_DIMSIZE temp7283_17)))
(assert (= var77799 temp7283_18))
(assert (= temp7283_19 #x0000000000000000))
(assert (= temp7283_20 (select ARGNAME_out_backprop_NAMEEND_DIMSIZE temp7283_19)))
(assert (= temp7283_21 #x0000000000000001))
(assert (= temp7283_22 (select ARGNAME_out_backprop_NAMEEND_DIMSIZE temp7283_21)))
(assert (= temp7283_23 #x0000000000000002))
(assert (= temp7283_24 (select ARGNAME_out_backprop_NAMEEND_DIMSIZE temp7283_23)))
(assert (= temp7283_25 #x0000000000000003))
(assert (= temp7283_26 (select ARGNAME_out_backprop_NAMEEND_DIMSIZE temp7283_25)))
(assert (= temp7283_27 #x0000000000000004))
(assert (= temp7283_28 (select ARGNAME_out_backprop_NAMEEND_DIMSIZE temp7283_27)))
(assert (= temp7283_29 #x0000000000000005))
(assert (= temp7283_30 (select ARGNAME_out_backprop_NAMEEND_DIMSIZE temp7283_29)))
(assert (= temp7283_31 #x0000000000000004))
(assert (= temp7283_32 (select ARGNAME_out_backprop_NAMEEND_DIMSIZE temp7283_31)))
(assert (= var77832 temp7283_32))
(assert (= temp7283_33 #x0000000000000004))
(assert (= temp7283_34 (select ARGNAME_filter_NAMEEND_DIMSIZE temp7283_33)))
(assert (= var77833 temp7283_34))
(assert (= var77834 (ite (= var77832 var77833) #x0000000000000001 #x0000000000000000)))
(assert (= temp7283_35 #x0000000000000001))
(assert (= var77834 temp7283_35))
(assert (= temp7283_36 #x0000000000000001))
(assert (= var275510 temp7283_36))
(assert (= temp7283_37 #x0000000000000001))
(assert (= var275528
   (ite (bvslt var275510 temp7283_37) #x0000000000000001 #x0000000000000000)))
(assert (= temp7283_38 #x0000000000000000))
(assert (= var275528 temp7283_38))
(assert (= temp7283_40 #x0000000000000000))
(assert (= temp7283_39 temp7283_40))
(assert (= temp7283_42 #x0000000000000000))
(assert (= temp7283_41 temp7283_42))
(assert (= temp7283_43 #x0000000000000001))
(assert (= var406582 temp7283_43))
(assert (= temp7283_44 #x0000000000000001))
(assert (= var406600
   (ite (bvslt var406582 temp7283_44) #x0000000000000001 #x0000000000000000)))
(assert (= temp7283_45 #x0000000000000000))
(assert (= var406600 temp7283_45))
(assert (= temp7283_47 #x0000000000000000))
(assert (= temp7283_46 temp7283_47))
(assert (= temp7283_48 #x0000000000000001))
(assert (= var603190 temp7283_48))
(assert (= temp7283_49 #x0000000000000001))
(assert (= var603208
   (ite (bvslt var603190 temp7283_49) #x0000000000000001 #x0000000000000000)))
(assert (= temp7283_50 #x0000000000000000))
(assert (= var603208 temp7283_50))
(assert (= temp7283_52 #x0000000000000000))
(assert (= temp7283_51 temp7283_52))
(assert (= temp7283_54 #x0000000000000000))
(assert (= temp7283_53 temp7283_54))
(assert (= temp7283_56 #x00000000000000ff))
(assert (= temp7283_55 temp7283_56))
(assert (= temp7283_58 #x00000000000000ff))
(assert (= temp7283_57 temp7283_58))
(assert (= temp7283_60 #x00000000000000ff))
(assert (= temp7283_59 temp7283_60))
(assert (= temp7283_61 #x0000000000000000))
(assert (= var795723 temp7283_61))
(assert (= var795702 var795723))
(assert (= var730134 var795702))
(assert (= temp7283_62 #x0000000000000000))
(assert (= var730134 temp7283_62))
(assert (= temp7283_63 #x0000000000000000))
(assert (= var861259 temp7283_63))
(assert (= var861238 var861259))
(assert (= var730144 var861238))
(assert (= temp7283_64 #x0000000000000000))
(assert (= var730144 temp7283_64))
(assert (= temp7283_65 #x0000000000000000))
(assert (= var926795 temp7283_65))
(assert (= var926774 var926795))
(assert (= var730147 var926774))
(assert (= temp7283_66 #x0000000000000000))
(assert (= var730147 temp7283_66))
(assert (= temp7283_67 #x0000000000008000))
(assert (= var1123378 temp7283_67))
(assert (= temp7283_68 #x0000000000040000))
(assert (= var1188914 temp7283_68))
(assert (= temp7283_69 #x0000000000200000))
(assert (= var1254450 temp7283_69))
(assert (= temp7283_71 #x0000000000000001))
(assert (= temp7283_70 temp7283_71))
(assert (= temp7283_73 #x0000000000000001))
(assert (= temp7283_72 temp7283_73))
(assert (= temp7283_74 #x0000000000000000))
(assert (= var78544 temp7283_74))
(assert (= temp7283_75 #x0000000000000001))
(assert (= var78545 (bvadd var78544 temp7283_75)))
(model-add temp7283_1 () (_ BitVec 64) #x0000000000000005)
(model-add temp7283_2 () (_ BitVec 64) #x0000000000000001)
(model-add var77740 () (_ BitVec 64) #x0000000000000001)
(model-del k!0)
(model-add ARGNAME_filter_NAMEEND_DIM
           ()
           (_ BitVec 64)
           (ite k!0 #x0000000000000005 (bvnot #x0000000000000005)))


